p cnf 966 2481
51 -699 -700 0
-51 699 0
-51 700 0
52 -51 -701 0
-52 51 0
-52 701 0
53 -5 -4 0
-53 5 0
-53 4 0
54 -53 -702 0
-54 53 0
-54 702 0
55 -703 -704 0
-55 703 0
-55 704 0
56 -705 -7 0
-56 705 0
-56 7 0
57 -56 -706 0
-57 56 0
-57 706 0
58 -707 -55 0
-58 707 0
-58 55 0
59 -708 -709 0
-59 708 0
-59 709 0
60 -59 -12 0
-60 59 0
-60 12 0
61 -710 -58 0
-61 710 0
-61 58 0
62 -711 -712 0
-62 711 0
-62 712 0
63 -62 -713 0
-63 62 0
-63 713 0
64 -714 -61 0
-64 714 0
-64 61 0
65 -17 -715 0
-65 17 0
-65 715 0
66 -65 -706 0
-66 65 0
-66 706 0
67 -716 -64 0
-67 716 0
-67 64 0
68 -19 -18 0
-68 19 0
-68 18 0
69 -68 -6 0
-69 68 0
-69 6 0
70 -717 -67 0
-70 717 0
-70 67 0
71 -20 -718 0
-71 20 0
-71 718 0
72 -71 -21 0
-72 71 0
-72 21 0
73 -719 -70 0
-73 719 0
-73 70 0
74 -720 -1 0
-74 720 0
-74 1 0
75 -74 -5 0
-75 74 0
-75 5 0
76 -721 -73 0
-76 721 0
-76 73 0
77 -23 -19 0
-77 23 0
-77 19 0
78 -77 -722 0
-78 77 0
-78 722 0
79 -723 -76 0
-79 723 0
-79 76 0
80 -25 -724 0
-80 25 0
-80 724 0
81 -80 -725 0
-81 80 0
-81 725 0
82 -726 -79 0
-82 726 0
-82 79 0
83 -727 -728 0
-83 727 0
-83 728 0
84 -83 -706 0
-84 83 0
-84 706 0
85 -729 -82 0
-85 729 0
-85 82 0
86 -29 -28 0
-86 29 0
-86 28 0
87 -86 -6 0
-87 86 0
-87 6 0
88 -730 -85 0
-88 730 0
-88 85 0
89 -9 -705 0
-89 9 0
-89 705 0
90 -89 -725 0
-90 89 0
-90 725 0
91 -731 -88 0
-91 731 0
-91 88 0
92 -732 -718 0
-92 732 0
-92 718 0
93 -92 -733 0
-93 92 0
-93 733 0
94 -734 -91 0
-94 734 0
-94 91 0
95 -33 -735 0
-95 33 0
-95 735 0
96 -95 -34 0
-96 95 0
-96 34 0
97 -736 -94 0
-97 736 0
-97 94 0
98 -28 -700 0
-98 28 0
-98 700 0
99 -98 -725 0
-99 98 0
-99 725 0
100 -737 -97 0
-100 737 0
-100 97 0
101 -728 -705 0
-101 728 0
-101 705 0
102 -101 -738 0
-102 101 0
-102 738 0
103 -739 -100 0
-103 739 0
-103 100 0
104 -740 -715 0
-104 740 0
-104 715 0
105 -104 -11 0
-105 104 0
-105 11 0
106 -741 -103 0
-106 741 0
-106 103 0
107 -742 -13 0
-107 742 0
-107 13 0
108 -107 -15 0
-108 107 0
-108 15 0
109 -743 -106 0
-109 743 0
-109 106 0
110 -744 -745 0
-110 744 0
-110 745 0
111 -110 -29 0
-111 110 0
-111 29 0
112 -746 -109 0
-112 746 0
-112 109 0
113 -29 -25 0
-113 29 0
-113 25 0
114 -113 -702 0
-114 113 0
-114 702 0
115 -747 -112 0
-115 747 0
-115 112 0
116 -36 -709 0
-116 36 0
-116 709 0
117 -116 -748 0
-117 116 0
-117 748 0
118 -749 -115 0
-118 749 0
-118 115 0
119 -38 -742 0
-119 38 0
-119 742 0
120 -119 -17 0
-120 119 0
-120 17 0
121 -750 -118 0
-121 750 0
-121 118 0
122 -751 -20 0
-122 751 0
-122 20 0
123 -122 -748 0
-123 122 0
-123 748 0
124 -752 -121 0
-124 752 0
-124 121 0
125 -9 -3 0
-125 9 0
-125 3 0
126 -125 -6 0
-126 125 0
-126 6 0
127 -753 -124 0
-127 753 0
-127 124 0
128 -29 -742 0
-128 29 0
-128 742 0
129 -128 -37 0
-129 128 0
-129 37 0
130 -754 -127 0
-130 754 0
-130 127 0
131 -755 -16 0
-131 755 0
-131 16 0
132 -131 -756 0
-132 131 0
-132 756 0
133 -757 -130 0
-133 757 0
-133 130 0
134 -755 -758 0
-134 755 0
-134 758 0
135 -134 -701 0
-135 134 0
-135 701 0
136 -759 -133 0
-136 759 0
-136 133 0
137 -42 -26 0
-137 42 0
-137 26 0
138 -137 -8 0
-138 137 0
-138 8 0
139 -760 -136 0
-139 760 0
-139 136 0
140 -761 -14 0
-140 761 0
-140 14 0
141 -140 -705 0
-141 140 0
-141 705 0
142 -762 -139 0
-142 762 0
-142 139 0
143 -763 -23 0
-143 763 0
-143 23 0
144 -143 -31 0
-144 143 0
-144 31 0
145 -764 -142 0
-145 764 0
-145 142 0
146 -765 -3 0
-146 765 0
-146 3 0
147 -146 -5 0
-147 146 0
-147 5 0
148 -766 -145 0
-148 766 0
-148 145 0
149 -767 -27 0
-149 767 0
-149 27 0
150 -149 -768 0
-150 149 0
-150 768 0
151 -769 -148 0
-151 769 0
-151 148 0
152 -38 -10 0
-152 38 0
-152 10 0
153 -152 -31 0
-153 152 0
-153 31 0
154 -770 -151 0
-154 770 0
-154 151 0
155 -771 -13 0
-155 771 0
-155 13 0
156 -155 -745 0
-156 155 0
-156 745 0
157 -772 -154 0
-157 772 0
-157 154 0
158 -767 -724 0
-158 767 0
-158 724 0
159 -158 -46 0
-159 158 0
-159 46 0
160 -773 -157 0
-160 773 0
-160 157 0
161 -22 -713 0
-161 22 0
-161 713 0
162 -161 -34 0
-162 161 0
-162 34 0
163 -774 -160 0
-163 774 0
-163 160 0
164 -35 -2 0
-164 35 0
-164 2 0
165 -164 -47 0
-165 164 0
-165 47 0
166 -775 -163 0
-166 775 0
-166 163 0
167 -744 -4 0
-167 744 0
-167 4 0
168 -167 -745 0
-168 167 0
-168 745 0
169 -776 -166 0
-169 776 0
-169 166 0
170 -23 -708 0
-170 23 0
-170 708 0
171 -170 -7 0
-171 170 0
-171 7 0
172 -777 -169 0
-172 777 0
-172 169 0
173 -720 -4 0
-173 720 0
-173 4 0
174 -173 -728 0
-174 173 0
-174 728 0
175 -778 -172 0
-175 778 0
-175 172 0
176 -104 -756 0
-176 104 0
-176 756 0
177 -779 -175 0
-177 779 0
-177 175 0
178 -42 -35 0
-178 42 0
-178 35 0
179 -178 -48 0
-179 178 0
-179 48 0
180 -780 -177 0
-180 780 0
-180 177 0
181 -49 -12 0
-181 49 0
-181 12 0
182 -181 -6 0
-182 181 0
-182 6 0
183 -781 -180 0
-183 781 0
-183 180 0
184 -728 -718 0
-184 728 0
-184 718 0
185 -184 -768 0
-185 184 0
-185 768 0
186 -782 -183 0
-186 782 0
-186 183 0
187 -744 -23 0
-187 744 0
-187 23 0
188 -187 -46 0
-188 187 0
-188 46 0
189 -783 -186 0
-189 783 0
-189 186 0
190 -784 -735 0
-190 784 0
-190 735 0
191 -190 -725 0
-191 190 0
-191 725 0
192 -785 -189 0
-192 785 0
-192 189 0
193 -722 -700 0
-193 722 0
-193 700 0
194 -193 -48 0
-194 193 0
-194 48 0
195 -786 -192 0
-195 786 0
-195 192 0
196 -751 -742 0
-196 751 0
-196 742 0
197 -196 -29 0
-197 196 0
-197 29 0
198 -787 -195 0
-198 787 0
-198 195 0
199 -49 -11 0
-199 49 0
-199 11 0
200 -199 -7 0
-200 199 0
-200 7 0
201 -788 -198 0
-201 788 0
-201 198 0
202 -37 -6 0
-202 37 0
-202 6 0
203 -202 -789 0
-203 202 0
-203 789 0
204 -790 -201 0
-204 790 0
-204 201 0
205 -771 -715 0
-205 771 0
-205 715 0
206 -205 -738 0
-206 205 0
-206 738 0
207 -791 -204 0
-207 791 0
-207 204 0
208 -17 -792 0
-208 17 0
-208 792 0
209 -208 -789 0
-209 208 0
-209 789 0
210 -793 -207 0
-210 793 0
-210 207 0
211 -43 -771 0
-211 43 0
-211 771 0
212 -211 -794 0
-212 211 0
-212 794 0
213 -795 -210 0
-213 795 0
-213 210 0
214 -38 -727 0
-214 38 0
-214 727 0
215 -214 -705 0
-215 214 0
-215 705 0
216 -796 -213 0
-216 796 0
-216 213 0
217 -50 -724 0
-217 50 0
-217 724 0
218 -217 -25 0
-218 217 0
-218 25 0
219 -797 -216 0
-219 797 0
-219 216 0
220 -794 -8 0
-220 794 0
-220 8 0
221 -220 -768 0
-221 220 0
-221 768 0
222 -798 -219 0
-222 798 0
-222 219 0
223 -744 -771 0
-223 744 0
-223 771 0
224 -223 -724 0
-224 223 0
-224 724 0
225 -799 -222 0
-225 799 0
-225 222 0
226 -728 -792 0
-226 728 0
-226 792 0
227 -226 -800 0
-227 226 0
-227 800 0
228 -801 -225 0
-228 801 0
-228 225 0
229 -751 -713 0
-229 751 0
-229 713 0
230 -229 -6 0
-230 229 0
-230 6 0
231 -802 -228 0
-231 802 0
-231 228 0
232 -763 -24 0
-232 763 0
-232 24 0
233 -232 -14 0
-233 232 0
-233 14 0
234 -803 -231 0
-234 803 0
-234 231 0
235 -20 -715 0
-235 20 0
-235 715 0
236 -235 -5 0
-236 235 0
-236 5 0
237 -804 -234 0
-237 804 0
-237 234 0
238 -34 -2 0
-238 34 0
-238 2 0
239 -238 -768 0
-239 238 0
-239 768 0
240 -805 -237 0
-240 805 0
-240 237 0
241 -767 -19 0
-241 767 0
-241 19 0
242 -241 -789 0
-242 241 0
-242 789 0
243 -806 -240 0
-243 806 0
-243 240 0
244 -49 -699 0
-244 49 0
-244 699 0
245 -244 -17 0
-245 244 0
-245 17 0
246 -807 -243 0
-246 807 0
-246 243 0
247 -742 -2 0
-247 742 0
-247 2 0
248 -247 -28 0
-248 247 0
-248 28 0
249 -808 -246 0
-249 808 0
-249 246 0
250 -35 -34 0
-250 35 0
-250 34 0
251 -250 -46 0
-251 250 0
-251 46 0
252 -809 -249 0
-252 809 0
-252 249 0
253 -42 -8 0
-253 42 0
-253 8 0
254 -253 -28 0
-254 253 0
-254 28 0
255 -810 -252 0
-255 810 0
-255 252 0
256 -44 -14 0
-256 44 0
-256 14 0
257 -256 -701 0
-257 256 0
-257 701 0
258 -811 -255 0
-258 811 0
-258 255 0
259 -812 -751 0
-259 812 0
-259 751 0
260 -259 -756 0
-260 259 0
-260 756 0
261 -813 -258 0
-261 813 0
-261 258 0
262 -765 -732 0
-262 765 0
-262 732 0
263 -262 -28 0
-263 262 0
-263 28 0
264 -814 -261 0
-264 814 0
-264 261 0
265 -815 -32 0
-265 815 0
-265 32 0
266 -265 -727 0
-266 265 0
-266 727 0
267 -816 -264 0
-267 816 0
-267 264 0
268 -727 -817 0
-268 727 0
-268 817 0
269 -268 -29 0
-269 268 0
-269 29 0
270 -818 -267 0
-270 818 0
-270 267 0
271 -728 -740 0
-271 728 0
-271 740 0
272 -271 -29 0
-272 271 0
-272 29 0
273 -819 -270 0
-273 819 0
-273 270 0
274 -755 -39 0
-274 755 0
-274 39 0
275 -274 -49 0
-275 274 0
-275 49 0
276 -820 -273 0
-276 820 0
-276 273 0
277 -32 -1 0
-277 32 0
-277 1 0
278 -277 -748 0
-278 277 0
-278 748 0
279 -821 -276 0
-279 821 0
-279 276 0
280 -39 -771 0
-280 39 0
-280 771 0
281 -280 -702 0
-281 280 0
-281 702 0
282 -822 -279 0
-282 822 0
-282 279 0
283 -17 -16 0
-283 17 0
-283 16 0
284 -283 -29 0
-284 283 0
-284 29 0
285 -823 -282 0
-285 823 0
-285 282 0
286 -824 -1 0
-286 824 0
-286 1 0
287 -286 -701 0
-287 286 0
-287 701 0
288 -825 -285 0
-288 825 0
-288 285 0
289 -812 -24 0
-289 812 0
-289 24 0
290 -289 -17 0
-290 289 0
-290 17 0
291 -826 -288 0
-291 826 0
-291 288 0
292 -724 -21 0
-292 724 0
-292 21 0
293 -292 -48 0
-293 292 0
-293 48 0
294 -827 -291 0
-294 827 0
-294 291 0
295 -765 -8 0
-295 765 0
-295 8 0
296 -295 -37 0
-296 295 0
-296 37 0
297 -828 -294 0
-297 828 0
-297 294 0
298 -30 -727 0
-298 30 0
-298 727 0
299 -298 -46 0
-299 298 0
-299 46 0
300 -829 -297 0
-300 829 0
-300 297 0
301 -50 -722 0
-301 50 0
-301 722 0
302 -301 -6 0
-302 301 0
-302 6 0
303 -830 -300 0
-303 830 0
-303 300 0
304 -715 -712 0
-304 715 0
-304 712 0
305 -304 -758 0
-305 304 0
-305 758 0
306 -831 -303 0
-306 831 0
-306 303 0
307 -745 -742 0
-307 745 0
-307 742 0
308 -307 -37 0
-308 307 0
-308 37 0
309 -832 -306 0
-309 832 0
-309 306 0
310 -733 -9 0
-310 733 0
-310 9 0
311 -310 -768 0
-311 310 0
-311 768 0
312 -833 -309 0
-312 833 0
-312 309 0
313 -41 -722 0
-313 41 0
-313 722 0
314 -313 -37 0
-314 313 0
-314 37 0
315 -834 -312 0
-315 834 0
-315 312 0
316 -735 -724 0
-316 735 0
-316 724 0
317 -316 -699 0
-317 316 0
-317 699 0
318 -835 -315 0
-318 835 0
-318 315 0
319 -742 -715 0
-319 742 0
-319 715 0
320 -319 -23 0
-320 319 0
-320 23 0
321 -836 -318 0
-321 836 0
-321 318 0
322 -727 -712 0
-322 727 0
-322 712 0
323 -322 -20 0
-323 322 0
-323 20 0
324 -837 -321 0
-324 837 0
-324 321 0
325 -724 -19 0
-325 724 0
-325 19 0
326 -325 -705 0
-326 325 0
-326 705 0
327 -838 -324 0
-327 838 0
-327 324 0
328 -784 -11 0
-328 784 0
-328 11 0
329 -328 -824 0
-329 328 0
-329 824 0
330 -839 -327 0
-330 839 0
-330 327 0
331 -25 -742 0
-331 25 0
-331 742 0
332 -331 -758 0
-332 331 0
-332 758 0
333 -840 -330 0
-333 840 0
-333 330 0
334 -10 -699 0
-334 10 0
-334 699 0
335 -334 -37 0
-335 334 0
-335 37 0
336 -841 -333 0
-336 841 0
-336 333 0
337 -735 -19 0
-337 735 0
-337 19 0
338 -337 -812 0
-338 337 0
-338 812 0
339 -842 -336 0
-339 842 0
-339 336 0
340 -742 -709 0
-340 742 0
-340 709 0
341 -340 -2 0
-341 340 0
-341 2 0
342 -843 -339 0
-342 843 0
-342 339 0
343 -36 -11 0
-343 36 0
-343 11 0
344 -343 -767 0
-344 343 0
-344 767 0
345 -844 -342 0
-345 844 0
-345 342 0
346 -44 -756 0
-346 44 0
-346 756 0
347 -346 -8 0
-347 346 0
-347 8 0
348 -845 -345 0
-348 845 0
-348 345 0
349 -751 -732 0
-349 751 0
-349 732 0
350 -349 -14 0
-350 349 0
-350 14 0
351 -846 -348 0
-351 846 0
-351 348 0
352 -45 -709 0
-352 45 0
-352 709 0
353 -352 -41 0
-353 352 0
-353 41 0
354 -847 -351 0
-354 847 0
-354 351 0
355 -812 -44 0
-355 812 0
-355 44 0
356 -355 -748 0
-356 355 0
-356 748 0
357 -848 -354 0
-357 848 0
-357 354 0
358 -26 -20 0
-358 26 0
-358 20 0
359 -358 -17 0
-359 358 0
-359 17 0
360 -849 -357 0
-360 849 0
-360 357 0
361 -727 -724 0
-361 727 0
-361 724 0
362 -361 -45 0
-362 361 0
-362 45 0
363 -850 -360 0
-363 850 0
-363 360 0
364 -12 -700 0
-364 12 0
-364 700 0
365 -364 -722 0
-365 364 0
-365 722 0
366 -851 -363 0
-366 851 0
-366 363 0
367 -22 -20 0
-367 22 0
-367 20 0
368 -367 -6 0
-368 367 0
-368 6 0
369 -852 -366 0
-369 852 0
-369 366 0
370 -38 -33 0
-370 38 0
-370 33 0
371 -370 -699 0
-371 370 0
-371 699 0
372 -853 -369 0
-372 853 0
-372 369 0
373 -751 -744 0
-373 751 0
-373 744 0
374 -373 -767 0
-374 373 0
-374 767 0
375 -854 -372 0
-375 854 0
-375 372 0
376 -27 -15 0
-376 27 0
-376 15 0
377 -376 -701 0
-377 376 0
-377 701 0
378 -855 -375 0
-378 855 0
-378 375 0
379 -10 -792 0
-379 10 0
-379 792 0
380 -379 -718 0
-380 379 0
-380 718 0
381 -856 -378 0
-381 856 0
-381 378 0
382 -744 -708 0
-382 744 0
-382 708 0
383 -382 -857 0
-383 382 0
-383 857 0
384 -858 -381 0
-384 858 0
-384 381 0
385 -705 -701 0
-385 705 0
-385 701 0
386 -385 -789 0
-386 385 0
-386 789 0
387 -859 -384 0
-387 859 0
-387 384 0
388 -28 -792 0
-388 28 0
-388 792 0
389 -388 -701 0
-389 388 0
-389 701 0
390 -860 -387 0
-390 860 0
-390 387 0
391 -43 -720 0
-391 43 0
-391 720 0
392 -391 -812 0
-392 391 0
-392 812 0
393 -861 -390 0
-393 861 0
-393 390 0
394 -41 -709 0
-394 41 0
-394 709 0
395 -394 -738 0
-395 394 0
-395 738 0
396 -862 -393 0
-396 862 0
-396 393 0
397 -36 -24 0
-397 36 0
-397 24 0
398 -397 -824 0
-398 397 0
-398 824 0
399 -863 -396 0
-399 863 0
-399 396 0
400 -32 -722 0
-400 32 0
-400 722 0
401 -400 -706 0
-401 400 0
-401 706 0
402 -864 -399 0
-402 864 0
-402 399 0
403 -32 -792 0
-403 32 0
-403 792 0
404 -403 -724 0
-404 403 0
-404 724 0
405 -865 -402 0
-405 865 0
-405 402 0
406 -784 -763 0
-406 784 0
-406 763 0
407 -406 -702 0
-407 406 0
-407 702 0
408 -866 -405 0
-408 866 0
-408 405 0
409 -755 -36 0
-409 755 0
-409 36 0
410 -409 -34 0
-410 409 0
-410 34 0
411 -867 -408 0
-411 867 0
-411 408 0
412 -19 -16 0
-412 19 0
-412 16 0
413 -412 -724 0
-413 412 0
-413 724 0
414 -868 -411 0
-414 868 0
-414 411 0
415 -22 -742 0
-415 22 0
-415 742 0
416 -415 -738 0
-416 415 0
-416 738 0
417 -869 -414 0
-417 869 0
-417 414 0
418 -26 -709 0
-418 26 0
-418 709 0
419 -418 -14 0
-419 418 0
-419 14 0
420 -870 -417 0
-420 870 0
-420 417 0
421 -815 -7 0
-421 815 0
-421 7 0
422 -421 -701 0
-422 421 0
-422 701 0
423 -871 -420 0
-423 871 0
-423 420 0
424 -824 -817 0
-424 824 0
-424 817 0
425 -424 -29 0
-425 424 0
-425 29 0
426 -872 -423 0
-426 872 0
-426 423 0
427 -873 -761 0
-427 873 0
-427 761 0
428 -427 -702 0
-428 427 0
-428 702 0
429 -874 -426 0
-429 874 0
-429 426 0
430 -857 -708 0
-430 857 0
-430 708 0
431 -430 -31 0
-431 430 0
-431 31 0
432 -875 -429 0
-432 875 0
-432 429 0
433 -32 -732 0
-433 32 0
-433 732 0
434 -433 -33 0
-434 433 0
-434 33 0
435 -876 -432 0
-435 876 0
-435 432 0
436 -815 -761 0
-436 815 0
-436 761 0
437 -436 -824 0
-437 436 0
-437 824 0
438 -877 -435 0
-438 877 0
-438 435 0
439 -857 -16 0
-439 857 0
-439 16 0
440 -439 -722 0
-440 439 0
-440 722 0
441 -878 -438 0
-441 878 0
-441 438 0
442 -767 -14 0
-442 767 0
-442 14 0
443 -442 -725 0
-443 442 0
-443 725 0
444 -879 -441 0
-444 879 0
-444 441 0
445 -11 -2 0
-445 11 0
-445 2 0
446 -445 -48 0
-446 445 0
-446 48 0
447 -880 -444 0
-447 880 0
-447 444 0
448 -40 -32 0
-448 40 0
-448 32 0
449 -448 -9 0
-449 448 0
-449 9 0
450 -881 -447 0
-450 881 0
-450 447 0
451 -49 -742 0
-451 49 0
-451 742 0
452 -451 -701 0
-452 451 0
-452 701 0
453 -882 -450 0
-453 882 0
-453 450 0
454 -12 -709 0
-454 12 0
-454 709 0
455 -454 -47 0
-455 454 0
-455 47 0
456 -883 -453 0
-456 883 0
-456 453 0
457 -744 -7 0
-457 744 0
-457 7 0
458 -457 -41 0
-458 457 0
-458 41 0
459 -884 -456 0
-459 884 0
-459 456 0
460 -733 -28 0
-460 733 0
-460 28 0
461 -460 -46 0
-461 460 0
-461 46 0
462 -885 -459 0
-462 885 0
-462 459 0
463 -857 -886 0
-463 857 0
-463 886 0
464 -463 -6 0
-464 463 0
-464 6 0
465 -887 -462 0
-465 887 0
-465 462 0
466 -755 -26 0
-466 755 0
-466 26 0
467 -466 -789 0
-467 466 0
-467 789 0
468 -888 -465 0
-468 888 0
-468 465 0
469 -71 -28 0
-469 71 0
-469 28 0
470 -889 -468 0
-470 889 0
-470 468 0
471 -815 -36 0
-471 815 0
-471 36 0
472 -471 -824 0
-472 471 0
-472 824 0
473 -890 -470 0
-473 890 0
-473 470 0
474 -767 -758 0
-474 767 0
-474 758 0
475 -474 -5 0
-475 474 0
-475 5 0
476 -891 -473 0
-476 891 0
-476 473 0
477 -8 -2 0
-477 8 0
-477 2 0
478 -477 -738 0
-478 477 0
-478 738 0
479 -892 -476 0
-479 892 0
-479 476 0
480 -815 -1 0
-480 815 0
-480 1 0
481 -480 -34 0
-481 480 0
-481 34 0
482 -893 -479 0
-482 893 0
-482 479 0
483 -30 -27 0
-483 30 0
-483 27 0
484 -483 -718 0
-484 483 0
-484 718 0
485 -894 -482 0
-485 894 0
-485 482 0
486 -722 -4 0
-486 722 0
-486 4 0
487 -486 -713 0
-487 486 0
-487 713 0
488 -895 -485 0
-488 895 0
-488 485 0
489 -815 -4 0
-489 815 0
-489 4 0
490 -489 -14 0
-490 489 0
-490 14 0
491 -896 -488 0
-491 896 0
-491 488 0
492 -30 -886 0
-492 30 0
-492 886 0
493 -492 -41 0
-493 492 0
-493 41 0
494 -897 -491 0
-494 897 0
-494 491 0
495 -43 -39 0
-495 43 0
-495 39 0
496 -495 -34 0
-496 495 0
-496 34 0
497 -898 -494 0
-497 898 0
-497 494 0
498 -24 -22 0
-498 24 0
-498 22 0
499 -498 -800 0
-499 498 0
-499 800 0
500 -899 -497 0
-500 899 0
-500 497 0
501 -31 -708 0
-501 31 0
-501 708 0
502 -501 -44 0
-502 501 0
-502 44 0
503 -900 -500 0
-503 900 0
-503 500 0
504 -36 -28 0
-504 36 0
-504 28 0
505 -504 -37 0
-505 504 0
-505 37 0
506 -901 -503 0
-506 901 0
-506 503 0
507 -744 -715 0
-507 744 0
-507 715 0
508 -507 -3 0
-508 507 0
-508 3 0
509 -902 -506 0
-509 902 0
-509 506 0
510 -38 -15 0
-510 38 0
-510 15 0
511 -510 -5 0
-511 510 0
-511 5 0
512 -903 -509 0
-512 903 0
-512 509 0
513 -724 -16 0
-513 724 0
-513 16 0
514 -513 -751 0
-514 513 0
-514 751 0
515 -904 -512 0
-515 904 0
-515 512 0
516 -727 -10 0
-516 727 0
-516 10 0
517 -516 -6 0
-517 516 0
-517 6 0
518 -905 -515 0
-518 905 0
-518 515 0
519 -104 -3 0
-519 104 0
-519 3 0
520 -906 -518 0
-520 906 0
-520 518 0
521 -742 -12 0
-521 742 0
-521 12 0
522 -521 -706 0
-522 521 0
-522 706 0
523 -907 -520 0
-523 907 0
-523 520 0
524 -735 -18 0
-524 735 0
-524 18 0
525 -524 -6 0
-525 524 0
-525 6 0
526 -908 -523 0
-526 908 0
-526 523 0
527 -41 -32 0
-527 41 0
-527 32 0
528 -527 -702 0
-528 527 0
-528 702 0
529 -909 -526 0
-529 909 0
-529 526 0
530 -812 -761 0
-530 812 0
-530 761 0
531 -530 -17 0
-531 530 0
-531 17 0
532 -910 -529 0
-532 910 0
-532 529 0
533 -712 -709 0
-533 712 0
-533 709 0
534 -533 -745 0
-534 533 0
-534 745 0
535 -911 -532 0
-535 911 0
-535 532 0
536 -50 -49 0
-536 50 0
-536 49 0
537 -536 -15 0
-537 536 0
-537 15 0
538 -912 -535 0
-538 912 0
-538 535 0
539 -47 -711 0
-539 47 0
-539 711 0
540 -539 -725 0
-540 539 0
-540 725 0
541 -913 -538 0
-541 913 0
-541 538 0
542 -711 -792 0
-542 711 0
-542 792 0
543 -542 -702 0
-543 542 0
-543 702 0
544 -914 -541 0
-544 914 0
-544 541 0
545 -756 -13 0
-545 756 0
-545 13 0
546 -545 -722 0
-546 545 0
-546 722 0
547 -915 -544 0
-547 915 0
-547 544 0
548 -42 -724 0
-548 42 0
-548 724 0
549 -548 -25 0
-549 548 0
-549 25 0
550 -916 -547 0
-550 916 0
-550 547 0
551 -20 -19 0
-551 20 0
-551 19 0
552 -551 -722 0
-552 551 0
-552 722 0
553 -917 -550 0
-553 917 0
-553 550 0
554 -40 -1 0
-554 40 0
-554 1 0
555 -554 -29 0
-555 554 0
-555 29 0
556 -918 -553 0
-556 918 0
-556 553 0
557 -33 -701 0
-557 33 0
-557 701 0
558 -557 -706 0
-558 557 0
-558 706 0
559 -919 -556 0
-559 919 0
-559 556 0
560 -761 -720 0
-560 761 0
-560 720 0
561 -560 -8 0
-561 560 0
-561 8 0
562 -920 -559 0
-562 920 0
-562 559 0
563 -738 -25 0
-563 738 0
-563 25 0
564 -563 -34 0
-564 563 0
-564 34 0
565 -921 -562 0
-565 921 0
-565 562 0
566 -735 -25 0
-566 735 0
-566 25 0
567 -566 -699 0
-567 566 0
-567 699 0
568 -922 -565 0
-568 922 0
-568 565 0
569 -751 -700 0
-569 751 0
-569 700 0
570 -569 -46 0
-570 569 0
-570 46 0
571 -923 -568 0
-571 923 0
-571 568 0
572 -709 -700 0
-572 709 0
-572 700 0
573 -572 -740 0
-573 572 0
-573 740 0
574 -924 -571 0
-574 924 0
-574 571 0
575 -718 -709 0
-575 718 0
-575 709 0
576 -575 -824 0
-576 575 0
-576 824 0
577 -925 -574 0
-577 925 0
-577 574 0
578 -42 -4 0
-578 42 0
-578 4 0
579 -578 -48 0
-579 578 0
-579 48 0
580 -926 -577 0
-580 926 0
-580 577 0
581 -751 -1 0
-581 751 0
-581 1 0
582 -581 -702 0
-582 581 0
-582 702 0
583 -927 -580 0
-583 927 0
-583 580 0
584 -39 -728 0
-584 39 0
-584 728 0
585 -584 -17 0
-585 584 0
-585 17 0
586 -928 -583 0
-586 928 0
-586 583 0
587 -715 -12 0
-587 715 0
-587 12 0
588 -587 -768 0
-588 587 0
-588 768 0
589 -929 -586 0
-589 929 0
-589 586 0
590 -751 -712 0
-590 751 0
-590 712 0
591 -590 -789 0
-591 590 0
-591 789 0
592 -930 -589 0
-592 930 0
-592 589 0
593 -50 -744 0
-593 50 0
-593 744 0
594 -593 -701 0
-594 593 0
-594 701 0
595 -931 -592 0
-595 931 0
-595 592 0
596 -34 -25 0
-596 34 0
-596 25 0
597 -596 -9 0
-597 596 0
-597 9 0
598 -932 -595 0
-598 932 0
-598 595 0
599 -226 -744 0
-599 226 0
-599 744 0
600 -933 -598 0
-600 933 0
-600 598 0
601 -715 -699 0
-601 715 0
-601 699 0
602 -601 -5 0
-602 601 0
-602 5 0
603 -934 -600 0
-603 934 0
-603 600 0
604 -732 -712 0
-604 732 0
-604 712 0
605 -604 -758 0
-605 604 0
-605 758 0
606 -935 -603 0
-606 935 0
-606 603 0
607 -784 -35 0
-607 784 0
-607 35 0
608 -607 -20 0
-608 607 0
-608 20 0
609 -936 -606 0
-609 936 0
-609 606 0
610 -765 -13 0
-610 765 0
-610 13 0
611 -610 -37 0
-611 610 0
-611 37 0
612 -937 -609 0
-612 937 0
-612 609 0
613 -49 -700 0
-613 49 0
-613 700 0
614 -613 -9 0
-614 613 0
-614 9 0
615 -938 -612 0
-615 938 0
-615 612 0
616 -815 -744 0
-616 815 0
-616 744 0
617 -616 -768 0
-617 616 0
-617 768 0
618 -939 -615 0
-618 939 0
-618 615 0
619 -755 -11 0
-619 755 0
-619 11 0
620 -619 -7 0
-620 619 0
-620 7 0
621 -940 -618 0
-621 940 0
-621 618 0
622 -274 -718 0
-622 274 0
-622 718 0
623 -941 -621 0
-623 941 0
-623 621 0
624 -733 -8 0
-624 733 0
-624 8 0
625 -624 -9 0
-625 624 0
-625 9 0
626 -942 -623 0
-626 942 0
-626 623 0
627 -812 -792 0
-627 812 0
-627 792 0
628 -627 -722 0
-628 627 0
-628 722 0
629 -943 -626 0
-629 943 0
-629 626 0
630 -45 -11 0
-630 45 0
-630 11 0
631 -630 -725 0
-631 630 0
-631 725 0
632 -944 -629 0
-632 944 0
-632 629 0
633 -765 -735 0
-633 765 0
-633 735 0
634 -633 -701 0
-634 633 0
-634 701 0
635 -945 -632 0
-635 945 0
-635 632 0
636 -784 -12 0
-636 784 0
-636 12 0
637 -636 -733 0
-637 636 0
-637 733 0
638 -946 -635 0
-638 946 0
-638 635 0
639 -38 -732 0
-639 38 0
-639 732 0
640 -639 -6 0
-640 639 0
-640 6 0
641 -947 -638 0
-641 947 0
-641 638 0
642 -33 -722 0
-642 33 0
-642 722 0
643 -642 -824 0
-643 642 0
-643 824 0
644 -948 -641 0
-644 948 0
-644 641 0
645 -45 -765 0
-645 45 0
-645 765 0
646 -645 -758 0
-646 645 0
-646 758 0
647 -949 -644 0
-647 949 0
-647 644 0
648 -25 -21 0
-648 25 0
-648 21 0
649 -648 -6 0
-649 648 0
-649 6 0
650 -950 -647 0
-650 950 0
-650 647 0
651 -771 -725 0
-651 771 0
-651 725 0
652 -651 -48 0
-652 651 0
-652 48 0
653 -951 -650 0
-653 951 0
-653 650 0
654 -39 -873 0
-654 39 0
-654 873 0
655 -654 -28 0
-655 654 0
-655 28 0
656 -952 -653 0
-656 952 0
-656 653 0
657 -24 -708 0
-657 24 0
-657 708 0
658 -657 -699 0
-658 657 0
-658 699 0
659 -953 -656 0
-659 953 0
-659 656 0
660 -38 -32 0
-660 38 0
-660 32 0
661 -660 -9 0
-661 660 0
-661 9 0
662 -954 -659 0
-662 954 0
-662 659 0
663 -727 -740 0
-663 727 0
-663 740 0
664 -663 -817 0
-664 663 0
-664 817 0
665 -955 -662 0
-665 955 0
-665 662 0
666 -784 -39 0
-666 784 0
-666 39 0
667 -666 -41 0
-667 666 0
-667 41 0
668 -956 -665 0
-668 956 0
-668 665 0
669 -767 -722 0
-669 767 0
-669 722 0
670 -669 -794 0
-670 669 0
-670 794 0
671 -957 -668 0
-671 957 0
-671 668 0
672 -812 -817 0
-672 812 0
-672 817 0
673 -672 -701 0
-673 672 0
-673 701 0
674 -958 -671 0
-674 958 0
-674 671 0
675 -735 -711 0
-675 735 0
-675 711 0
676 -675 -745 0
-676 675 0
-676 745 0
677 -959 -674 0
-677 959 0
-677 674 0
678 -19 -12 0
-678 19 0
-678 12 0
679 -678 -701 0
-679 678 0
-679 701 0
680 -960 -677 0
-680 960 0
-680 677 0
681 -728 -20 0
-681 728 0
-681 20 0
682 -681 -21 0
-682 681 0
-682 21 0
683 -961 -680 0
-683 961 0
-683 680 0
684 -768 -23 0
-684 768 0
-684 23 0
685 -684 -48 0
-685 684 0
-685 48 0
686 -962 -683 0
-686 962 0
-686 683 0
687 -824 -20 0
-687 824 0
-687 20 0
688 -687 -725 0
-688 687 0
-688 725 0
689 -963 -686 0
-689 963 0
-689 686 0
690 -812 -745 0
-690 812 0
-690 745 0
691 -690 -3 0
-691 690 0
-691 3 0
692 -964 -689 0
-692 964 0
-692 689 0
693 -26 -24 0
-693 26 0
-693 24 0
694 -693 -12 0
-694 693 0
-694 12 0
695 -965 -692 0
-695 965 0
-695 692 0
696 -735 -30 0
-696 735 0
-696 30 0
697 -696 -708 0
-697 696 0
-697 708 0
698 -966 -695 0
-698 966 0
-698 695 0
-699 -2 0
699 2 0
-700 -1 0
700 1 0
-701 -3 0
701 3 0
-702 -6 0
702 6 0
-703 -54 0
703 54 0
-704 -52 0
704 52 0
-705 -8 0
705 8 0
-706 -9 0
706 9 0
-707 -57 0
707 57 0
-708 -11 0
708 11 0
-709 -10 0
709 10 0
-710 -60 0
710 60 0
-711 -14 0
711 14 0
-712 -13 0
712 13 0
-713 -15 0
713 15 0
-714 -63 0
714 63 0
-715 -16 0
715 16 0
-716 -66 0
716 66 0
-717 -69 0
717 69 0
-718 -12 0
718 12 0
-719 -72 0
719 72 0
-720 -22 0
720 22 0
-721 -75 0
721 75 0
-722 -17 0
722 17 0
-723 -78 0
723 78 0
-724 -24 0
724 24 0
-725 -5 0
725 5 0
-726 -81 0
726 81 0
-727 -27 0
727 27 0
-728 -26 0
728 26 0
-729 -84 0
729 84 0
-730 -87 0
730 87 0
-731 -90 0
731 90 0
-732 -30 0
732 30 0
-733 -31 0
733 31 0
-734 -93 0
734 93 0
-735 -32 0
735 32 0
-736 -96 0
736 96 0
-737 -99 0
737 99 0
-738 -29 0
738 29 0
-739 -102 0
739 102 0
-740 -23 0
740 23 0
-741 -105 0
741 105 0
-742 -19 0
742 19 0
-743 -108 0
743 108 0
-744 -35 0
744 35 0
-745 -20 0
745 20 0
-746 -111 0
746 111 0
-747 -114 0
747 114 0
-748 -37 0
748 37 0
-749 -117 0
749 117 0
-750 -120 0
750 120 0
-751 -39 0
751 39 0
-752 -123 0
752 123 0
-753 -126 0
753 126 0
-754 -129 0
754 129 0
-755 -40 0
755 40 0
-756 -41 0
756 41 0
-757 -132 0
757 132 0
-758 -28 0
758 28 0
-759 -135 0
759 135 0
-760 -138 0
760 138 0
-761 -33 0
761 33 0
-762 -141 0
762 141 0
-763 -43 0
763 43 0
-764 -144 0
764 144 0
-765 -44 0
765 44 0
-766 -147 0
766 147 0
-767 -45 0
767 45 0
-768 -46 0
768 46 0
-769 -150 0
769 150 0
-770 -153 0
770 153 0
-771 -18 0
771 18 0
-772 -156 0
772 156 0
-773 -159 0
773 159 0
-774 -162 0
774 162 0
-775 -165 0
775 165 0
-776 -168 0
776 168 0
-777 -171 0
777 171 0
-778 -174 0
778 174 0
-779 -176 0
779 176 0
-780 -179 0
780 179 0
-781 -182 0
781 182 0
-782 -185 0
782 185 0
-783 -188 0
783 188 0
-784 -50 0
784 50 0
-785 -191 0
785 191 0
-786 -194 0
786 194 0
-787 -197 0
787 197 0
-788 -200 0
788 200 0
-789 -48 0
789 48 0
-790 -203 0
790 203 0
-791 -206 0
791 206 0
-792 -4 0
792 4 0
-793 -209 0
793 209 0
-794 -34 0
794 34 0
-795 -212 0
795 212 0
-796 -215 0
796 215 0
-797 -218 0
797 218 0
-798 -221 0
798 221 0
-799 -224 0
799 224 0
-800 -21 0
800 21 0
-801 -227 0
801 227 0
-802 -230 0
802 230 0
-803 -233 0
803 233 0
-804 -236 0
804 236 0
-805 -239 0
805 239 0
-806 -242 0
806 242 0
-807 -245 0
807 245 0
-808 -248 0
808 248 0
-809 -251 0
809 251 0
-810 -254 0
810 254 0
-811 -257 0
811 257 0
-812 -49 0
812 49 0
-813 -260 0
813 260 0
-814 -263 0
814 263 0
-815 -42 0
815 42 0
-816 -266 0
816 266 0
-817 -7 0
817 7 0
-818 -269 0
818 269 0
-819 -272 0
819 272 0
-820 -275 0
820 275 0
-821 -278 0
821 278 0
-822 -281 0
822 281 0
-823 -284 0
823 284 0
-824 -47 0
824 47 0
-825 -287 0
825 287 0
-826 -290 0
826 290 0
-827 -293 0
827 293 0
-828 -296 0
828 296 0
-829 -299 0
829 299 0
-830 -302 0
830 302 0
-831 -305 0
831 305 0
-832 -308 0
832 308 0
-833 -311 0
833 311 0
-834 -314 0
834 314 0
-835 -317 0
835 317 0
-836 -320 0
836 320 0
-837 -323 0
837 323 0
-838 -326 0
838 326 0
-839 -329 0
839 329 0
-840 -332 0
840 332 0
-841 -335 0
841 335 0
-842 -338 0
842 338 0
-843 -341 0
843 341 0
-844 -344 0
844 344 0
-845 -347 0
845 347 0
-846 -350 0
846 350 0
-847 -353 0
847 353 0
-848 -356 0
848 356 0
-849 -359 0
849 359 0
-850 -362 0
850 362 0
-851 -365 0
851 365 0
-852 -368 0
852 368 0
-853 -371 0
853 371 0
-854 -374 0
854 374 0
-855 -377 0
855 377 0
-856 -380 0
856 380 0
-857 -38 0
857 38 0
-858 -383 0
858 383 0
-859 -386 0
859 386 0
-860 -389 0
860 389 0
-861 -392 0
861 392 0
-862 -395 0
862 395 0
-863 -398 0
863 398 0
-864 -401 0
864 401 0
-865 -404 0
865 404 0
-866 -407 0
866 407 0
-867 -410 0
867 410 0
-868 -413 0
868 413 0
-869 -416 0
869 416 0
-870 -419 0
870 419 0
-871 -422 0
871 422 0
-872 -425 0
872 425 0
-873 -36 0
873 36 0
-874 -428 0
874 428 0
-875 -431 0
875 431 0
-876 -434 0
876 434 0
-877 -437 0
877 437 0
-878 -440 0
878 440 0
-879 -443 0
879 443 0
-880 -446 0
880 446 0
-881 -449 0
881 449 0
-882 -452 0
882 452 0
-883 -455 0
883 455 0
-884 -458 0
884 458 0
-885 -461 0
885 461 0
-886 -25 0
886 25 0
-887 -464 0
887 464 0
-888 -467 0
888 467 0
-889 -469 0
889 469 0
-890 -472 0
890 472 0
-891 -475 0
891 475 0
-892 -478 0
892 478 0
-893 -481 0
893 481 0
-894 -484 0
894 484 0
-895 -487 0
895 487 0
-896 -490 0
896 490 0
-897 -493 0
897 493 0
-898 -496 0
898 496 0
-899 -499 0
899 499 0
-900 -502 0
900 502 0
-901 -505 0
901 505 0
-902 -508 0
902 508 0
-903 -511 0
903 511 0
-904 -514 0
904 514 0
-905 -517 0
905 517 0
-906 -519 0
906 519 0
-907 -522 0
907 522 0
-908 -525 0
908 525 0
-909 -528 0
909 528 0
-910 -531 0
910 531 0
-911 -534 0
911 534 0
-912 -537 0
912 537 0
-913 -540 0
913 540 0
-914 -543 0
914 543 0
-915 -546 0
915 546 0
-916 -549 0
916 549 0
-917 -552 0
917 552 0
-918 -555 0
918 555 0
-919 -558 0
919 558 0
-920 -561 0
920 561 0
-921 -564 0
921 564 0
-922 -567 0
922 567 0
-923 -570 0
923 570 0
-924 -573 0
924 573 0
-925 -576 0
925 576 0
-926 -579 0
926 579 0
-927 -582 0
927 582 0
-928 -585 0
928 585 0
-929 -588 0
929 588 0
-930 -591 0
930 591 0
-931 -594 0
931 594 0
-932 -597 0
932 597 0
-933 -599 0
933 599 0
-934 -602 0
934 602 0
-935 -605 0
935 605 0
-936 -608 0
936 608 0
-937 -611 0
937 611 0
-938 -614 0
938 614 0
-939 -617 0
939 617 0
-940 -620 0
940 620 0
-941 -622 0
941 622 0
-942 -625 0
942 625 0
-943 -628 0
943 628 0
-944 -631 0
944 631 0
-945 -634 0
945 634 0
-946 -637 0
946 637 0
-947 -640 0
947 640 0
-948 -643 0
948 643 0
-949 -646 0
949 646 0
-950 -649 0
950 649 0
-951 -652 0
951 652 0
-952 -655 0
952 655 0
-953 -658 0
953 658 0
-954 -661 0
954 661 0
-955 -664 0
955 664 0
-956 -667 0
956 667 0
-957 -670 0
957 670 0
-958 -673 0
958 673 0
-959 -676 0
959 676 0
-960 -679 0
960 679 0
-961 -682 0
961 682 0
-962 -685 0
962 685 0
-963 -688 0
963 688 0
-964 -691 0
964 691 0
-965 -694 0
965 694 0
-966 -697 0
966 697 0
698 0
